NAME : rc_201.1.5920611.tour
COMMENT : Length = 5920611
COMMENT : Found by LKH [Keld Helsgaun] Tue Nov  7 19:55:42 2017
TYPE : TOUR
DIMENSION : 20
TOUR_SECTION
1
15
19
14
10
5
6
8
9
7
17
18
20
12
2
11
4
13
3
16
-1
EOF
